c description: Random 7-CNF over 15 variables and 30 clauses
c generator: CNFgen (0.9.0)
c copyright: (C) 2012-2020 Massimo Lauria <massimo.lauria@uniroma1.it>
c url: https://massimolauria.net/cnfgen
c
p cnf 15 30
-1 -3 -4 -5 6 -8 13 0
-1 3 -4 5 9 -10 12 0
1 -3 -6 -7 -11 12 14 0
2 -5 6 -8 -9 11 14 0
-1 4 5 -9 -10 -13 -15 0
3 6 7 9 10 -11 15 0
-5 -7 -10 -11 12 14 15 0
-3 4 5 -7 -8 -11 -14 0
1 3 -5 6 7 -10 15 0
2 3 5 6 7 -10 11 0
1 -2 4 5 -11 12 -14 0
-2 -3 -6 9 10 14 -15 0
2 3 -5 -11 -12 -14 15 0
-3 7 -8 -9 -10 11 -13 0
1 6 9 11 -12 13 -15 0
-1 -2 5 -7 -8 10 -15 0
4 6 -8 -9 -11 12 -13 0
-1 2 -3 -4 7 -9 14 0
4 5 7 8 -10 -13 -14 0
-3 4 9 10 -12 -14 -15 0
-1 2 -4 -5 -9 -13 15 0
1 5 -9 10 -13 14 15 0
1 5 -6 7 10 11 -13 0
1 3 -5 -10 -12 13 -15 0
-3 4 7 -8 -10 -11 14 0
-1 -2 3 11 13 -14 -15 0
-2 6 7 -11 12 14 -15 0
-2 3 -4 7 9 -13 14 0
-1 4 5 6 -9 13 -14 0
2 -3 -5 7 -8 12 -14 0